peakDumbCharging = 14800; 
Machine = anon_enum(16); 
machineSpeed = [3700,3700,3700,3700,3700,3700,3700,3700,3700,3700,3700,3700,3700,3700,3700,3700]; 
machineLoad = [3700,3700,3700,3700,3700,3700,3700,3700,3700,3700,3700,3700,3700,3700,3700,3700]; 
Car = anon_enum(9); 
demandCar = [8400,6600,7320,5560,3000,23320,29200,1840,1480]; 
arrivalCar = [77,69,69,68,64,63,52,47,33]; 
departureCar = [81,72,72,70,67,77,62,49,34]; 
